 $CONTRL SCFTYP=RHF RUNTYP=OPTIMIZE MAXIT=30 ICHARG=0 MULT=1 $END
 $SYSTEM MWORDS=200 MEMDDI=100 $END
 $BASIS  GBASIS=N31 NGAUSS=6 NDFUNC=1 $END
 $STATPT NSTEP=50 $END
 $DATA
RANGE optimization
C1
{structure_info}
 $END
